NAME : u5
COMMENT : Drilling problem (Reinelt)
TYPE : TSP
DIMENSION : 5
EDGE_WEIGHT_TYPE : EUC_2D
NODE_COORD_SECTION
1 3.30000e+03 2.20000e+03
2 3.50000e+03 2.90000e+03
3 3.30000e+03 2.90000e+03
4 3.50000e+03 3.10000e+03
5 3.50000e+03 3.30000e+03
EOF
